certificates/rado_a7_c270_N39.cnf
c Rad2 upper bound instance: x1 + 7*x2 - x3 = 270, interval [1,39]
p cnf 39 280
1 4 39 0
-1 -4 -39 0
2 5 39 0
-2 -5 -39 0
3 6 39 0
-3 -6 -39 0
4 7 39 0
-4 -7 -39 0
1 5 38 0
-1 -5 -38 0
5 8 39 0
-5 -8 -39 0
2 6 38 0
-2 -6 -38 0
6 9 39 0
-6 -9 -39 0
3 7 38 0
-3 -7 -38 0
7 10 39 0
-7 -10 -39 0
4 8 38 0
-4 -8 -38 0
8 11 39 0
-8 -11 -39 0
5 9 38 0
-5 -9 -38 0
9 12 39 0
-9 -12 -39 0
6 10 38 0
-6 -10 -38 0
10 13 39 0
-10 -13 -39 0
7 11 38 0
-7 -11 -38 0
11 14 39 0
-11 -14 -39 0
1 12 37 0
-1 -12 -37 0
8 12 38 0
-8 -12 -38 0
12 15 39 0
-12 -15 -39 0
2 13 37 0
-2 -13 -37 0
9 13 38 0
-9 -13 -38 0
13 16 39 0
-13 -16 -39 0
3 14 37 0
-3 -14 -37 0
10 14 38 0
-10 -14 -38 0
14 17 39 0
-14 -17 -39 0
4 15 37 0
-4 -15 -37 0
11 15 38 0
-11 -15 -38 0
15 18 39 0
-15 -18 -39 0
5 16 37 0
-5 -16 -37 0
12 16 38 0
-12 -16 -38 0
16 19 39 0
-16 -19 -39 0
6 17 37 0
-6 -17 -37 0
13 17 38 0
-13 -17 -38 0
17 20 39 0
-17 -20 -39 0
7 18 37 0
-7 -18 -37 0
14 18 38 0
-14 -18 -38 0
18 21 39 0
-18 -21 -39 0
1 19 36 0
-1 -19 -36 0
8 19 37 0
-8 -19 -37 0
15 19 38 0
-15 -19 -38 0
19 22 39 0
-19 -22 -39 0
2 20 36 0
-2 -20 -36 0
9 20 37 0
-9 -20 -37 0
16 20 38 0
-16 -20 -38 0
20 23 39 0
-20 -23 -39 0
3 21 36 0
-3 -21 -36 0
10 21 37 0
-10 -21 -37 0
17 21 38 0
-17 -21 -38 0
21 24 39 0
-21 -24 -39 0
4 22 36 0
-4 -22 -36 0
11 22 37 0
-11 -22 -37 0
18 22 38 0
-18 -22 -38 0
22 25 39 0
-22 -25 -39 0
5 23 36 0
-5 -23 -36 0
12 23 37 0
-12 -23 -37 0
19 23 38 0
-19 -23 -38 0
23 26 39 0
-23 -26 -39 0
6 24 36 0
-6 -24 -36 0
13 24 37 0
-13 -24 -37 0
20 24 38 0
-20 -24 -38 0
24 27 39 0
-24 -27 -39 0
7 25 36 0
-7 -25 -36 0
14 25 37 0
-14 -25 -37 0
21 25 38 0
-21 -25 -38 0
25 28 39 0
-25 -28 -39 0
1 26 35 0
-1 -26 -35 0
8 26 36 0
-8 -26 -36 0
15 26 37 0
-15 -26 -37 0
22 26 38 0
-22 -26 -38 0
26 29 39 0
-26 -29 -39 0
2 27 35 0
-2 -27 -35 0
9 27 36 0
-9 -27 -36 0
16 27 37 0
-16 -27 -37 0
23 27 38 0
-23 -27 -38 0
27 30 39 0
-27 -30 -39 0
3 28 35 0
-3 -28 -35 0
10 28 36 0
-10 -28 -36 0
17 28 37 0
-17 -28 -37 0
24 28 38 0
-24 -28 -38 0
28 31 39 0
-28 -31 -39 0
4 29 35 0
-4 -29 -35 0
11 29 36 0
-11 -29 -36 0
18 29 37 0
-18 -29 -37 0
25 29 38 0
-25 -29 -38 0
29 32 39 0
-29 -32 -39 0
5 30 35 0
-5 -30 -35 0
12 30 36 0
-12 -30 -36 0
19 30 37 0
-19 -30 -37 0
26 30 38 0
-26 -30 -38 0
30 33 39 0
-30 -33 -39 0
6 31 35 0
-6 -31 -35 0
13 31 36 0
-13 -31 -36 0
20 31 37 0
-20 -31 -37 0
27 31 38 0
-27 -31 -38 0
31 34 39 0
-31 -34 -39 0
7 32 35 0
-7 -32 -35 0
14 32 36 0
-14 -32 -36 0
21 32 37 0
-21 -32 -37 0
28 32 38 0
-28 -32 -38 0
32 35 39 0
-32 -35 -39 0
1 33 34 0
-1 -33 -34 0
8 33 35 0
-8 -33 -35 0
15 33 36 0
-15 -33 -36 0
22 33 37 0
-22 -33 -37 0
29 33 38 0
-29 -33 -38 0
33 36 39 0
-33 -36 -39 0
2 34 0
-2 -34 0
9 34 35 0
-9 -34 -35 0
16 34 36 0
-16 -34 -36 0
23 34 37 0
-23 -34 -37 0
30 34 38 0
-30 -34 -38 0
34 37 39 0
-34 -37 -39 0
3 34 35 0
-3 -34 -35 0
10 35 0
-10 -35 0
17 35 36 0
-17 -35 -36 0
24 35 37 0
-24 -35 -37 0
31 35 38 0
-31 -35 -38 0
35 38 39 0
-35 -38 -39 0
4 34 36 0
-4 -34 -36 0
11 35 36 0
-11 -35 -36 0
18 36 0
-18 -36 0
25 36 37 0
-25 -36 -37 0
32 36 38 0
-32 -36 -38 0
36 39 0
-36 -39 0
5 34 37 0
-5 -34 -37 0
12 35 37 0
-12 -35 -37 0
19 36 37 0
-19 -36 -37 0
26 37 0
-26 -37 0
33 37 38 0
-33 -37 -38 0
6 34 38 0
-6 -34 -38 0
13 35 38 0
-13 -35 -38 0
20 36 38 0
-20 -36 -38 0
27 37 38 0
-27 -37 -38 0
34 38 0
-34 -38 0
7 34 39 0
-7 -34 -39 0
14 35 39 0
-14 -35 -39 0
21 36 39 0
-21 -36 -39 0
28 37 39 0
-28 -37 -39 0
