certificates/rado_a7_c270_N39.drat
-39 0
36 0
-18 0
15 0
21 0
-33 0
-3 0
30 0
6 0
-12 0
-24 0
9 0
27 0
0
